(set-info :smt-lib-version 2.6)
(set-logic QF_SLIA)
(set-info :source |
Generated by: Dmitry Blotsky1, Federico Mora, Murphy Berzish, Yunhui Zheng, Ifaz Kabir, Vijay Ganesh, Zhengyang Lu
Generated on: 2018-01-24
Generator: StringFuzz
Application: Evaluate string solvers
Target solver: Z3str3, CVC4, Z3str2, Norn
Publications: Blotsky, D., Mora, F., Berzish, M., Zheng, Y., Kabir, I., & Ganesh, V. (2018). Stringfuzz: A fuzzer for string solvers. In CAV 2018.
Description: transformed by StringFuzz, a modular string and regex fuzzer, from an industrial benchmark
|)
(set-info :license "https://creativecommons.org/licenses/by/4.0/")
(set-info :category "random")
(set-info :status unknown)

(declare-const x String)
(declare-const y String)
(assert (str.in_re x (re.* (str.to_re "ddcc|@if7jJm%'n\\'3qa"))))
(assert (str.in_re x (re.+ (str.to_re ";Y#;}r+dyhN~::3woDaMN!ba'' ''"""".sk#'n\\'h!9t.yddcc{6N]wyR'bkG{U/OL_Y2Z'r\\'a"))))
(assert (> (str.len x) 58))
(assert (< (str.len x) 67))
(check-sat)

(exit)
